p edge 13 40
e 1 6
e 1 2
e 1 11
e 2 5
e 2 4
e 2 1
e 3 4
e 3 10
e 4 7
e 4 9
e 4 10
e 4 3
e 4 2
e 5 11
e 5 6
e 5 10
e 5 2
e 6 7
e 6 5
e 6 1
e 7 9
e 7 8
e 7 6
e 7 4
e 8 9
e 8 7
e 9 8
e 9 7
e 9 4
e 10 12
e 10 11
e 10 5
e 10 4
e 10 3
e 11 10
e 11 5
e 11 1
e 12 13
e 12 10
e 13 12
